StudentsNr = 10;
InstructorsNr = 98;
DaysNr = 1;
SlotsPerDay = 10;
AvailabilitySlotsLenght = 5;
RoomNr = 1;
ProgrammNr = 2;
DegreeNr = 1;
RolesNr = 4;
CoursesNr = 9;
InstructorsProgramm = [{1}, {1}, {1}, {1, 2}, {1, 2}, {2}, {1, 2}, {2}, {1}, {2}, {2}, {1}, {1, 2}, {1, 2}, {1, 2}, {1}, {1}, {1}, {1, 2}, {1}, {1}, {1}, {1, 2}, {1, 2}, {1}, {1}, {1, 2}, {1, 2}, {1}, {2}, {1}, {2}, {1}, {1}, {1}, {2}, {2}, {1}, {1}, {2}, {1, 2}, {1, 2}, {1}, {2}, {1}, {1}, {1}, {2}, {1}, {2}, {1, 2}, {1, 2}, {2}, {2}, {2}, {1, 2}, {1, 2}, {1, 2}, {1, 2}, {1}, {2}, {1}, {2}, {1}, {1}, {2}, {1}, {2}, {2}, {1}, {2}, {2}, {1, 2}, {1}, {1}, {1}, {1}, {2}, {1, 2}, {2}, {1}, {2}, {1}, {1}, {2}, {1}, {1, 2}, {1}, {1}, {1, 2}, {2}, {2}, {2}, {2}, {2}, {1, 2}, {2}, {1, 2}];
InstructorRolesPerProgramm = [|{1, 2, 7, 12, 16, 19, 20, 21, 23, 26, 28, 34, 35, 38, 41, 46, 49, 51, 58, 62, 65, 74, 76, 77, 90, 96, 98}, {1, 2, 3, 5, 14, 21, 22, 24, 25, 26, 33, 34, 38, 39, 42, 46, 49, 59, 60, 70, 74, 83, 86, 88, 90, 96, 98}, {3, 5, 7, 9, 12, 13, 14, 15, 18, 19, 20, 23, 27, 28, 31, 34, 39, 41, 42, 46, 47, 51, 56, 59, 67, 70, 74, 75, 81, 83, 86, 87, 89, 98}, {2, 5, 7, 15, 18, 19, 22, 23, 27, 31, 33, 38, 39, 42, 43, 45, 47, 49, 51, 52, 56, 64, 65, 67, 70, 76, 79, 81, 89}|{6, 7, 10, 19, 23, 28, 37, 41, 44, 50, 51, 54, 55, 58, 78, 82, 85, 90, 92, 95, 96, 98}, {5, 10, 11, 14, 24, 32, 36, 42, 50, 53, 54, 59, 63, 71, 72, 80, 82, 85, 90, 94, 96, 98}, {5, 7, 11, 13, 14, 15, 19, 23, 27, 28, 32, 41, 42, 50, 51, 54, 55, 56, 59, 66, 69, 78, 80, 82, 87, 98}, {5, 7, 8, 10, 15, 19, 23, 27, 32, 36, 37, 42, 44, 48, 51, 52, 56, 61, 68, 79, 92, 93, 95, 97}|];
InstructorsAvailability = [|0, 0, |0, 1, |0, 0, |1, 1, |1, 1, |1, 1, |0, 0, |1, 1, |0, 0, |1, 0, |1, 1, |1, 1, |1, 1, |0, 0, |0, 0, |0, 0, |0, 0, |0, 0, |1, 1, |0, 1, |1, 1, |1, 1, |0, 0, |0, 1, |0, 0, |0, 0, |1, 1, |1, 1, |1, 1, |0, 0, |0, 0, |1, 1, |1, 1, |0, 1, |1, 1, |1, 1, |0, 1, |1, 1, |1, 1, |1, 0, |1, 1, |1, 1, |1, 1, |0, 0, |0, 1, |0, 1, |0, 0, |0, 1, |0, 0, |1, 1, |0, 0, |0, 1, |1, 1, |1, 1, |1, 1, |1, 1, |1, 1, |0, 1, |0, 0, |1, 1, |0, 1, |1, 1, |0, 1, |1, 1, |1, 1, |1, 1, |1, 1, |1, 1, |0, 0, |0, 1, |0, 1, |1, 1, |0, 0, |0, 0, |1, 1, |0, 0, |0, 1, |1, 1, |1, 1, |1, 1, |0, 1, |1, 1, |0, 1, |0, 1, |1, 1, |1, 1, |1, 1, |0, 1, |1, 1, |0, 0, |0, 0, |0, 0, |0, 0, |0, 1, |1, 1, |0, 1, |1, 0, |0, 1|];
StudentsProgramm = [1, 1, 2, 1, 1, 2, 1, 2, 1, 1];
StudentsDegree = [1, 1, 1, 1, 1, 1, 1, 1, 1, 1];
StudentsSupervisorId = [28, 96, 58, 88, 15, 92, 15, 69, 25, 89];
StudentsCourseIds = [{1, 2, 3, 4, 5, 6, 7, 8, 9}, {1, 2, 3, 4, 5, 6, 7, 8, 9}, {1, 2, 3, 4, 5, 6, 7, 8, 9}, {1, 2, 3, 4, 5, 6, 7, 8, 9}, {1, 2, 3, 4, 5, 6, 7, 8, 9}, {1, 2, 3, 4, 5, 6, 7, 8, 9}, {1, 2, 3, 4, 5, 6, 7, 8, 9}, {1, 2, 3, 4, 5, 6, 7, 8, 9}, {1, 2, 3, 4, 5, 6, 7, 8, 9}, {1, 2, 3, 4, 5, 6, 7, 8, 9}];
StudentsAvailability = [|1, 1, |1, 1, |1, 1, |0, 0, |0, 0, |1, 1, |0, 0, |0, 1, |1, 1, |1, 1|];
TheoryticalMinCard = [0, 0, 0, 0, 0, 0, 0, 0, 0, 0];
CoursesInstructorIds = [{1, 2, 5, 6, 7, 8, 9, 11, 12, 13, 14, 15, 16, 18, 21, 25, 29, 32, 35, 36, 37, 41, 43, 45, 46, 47, 48, 49, 53, 55, 56, 57, 58, 59, 60, 61, 62, 63, 66, 67, 69, 71, 72, 73, 75, 76, 78, 79, 82, 83, 85, 86, 90, 91, 92, 93, 95, 97, 98}, {1, 2, 4, 7, 8, 10, 12, 15, 17, 18, 19, 20, 21, 25, 28, 30, 35, 36, 37, 38, 39, 40, 41, 43, 44, 46, 48, 50, 52, 53, 56, 58, 60, 62, 63, 64, 65, 67, 68, 69, 72, 73, 78, 80, 81, 82, 83, 85, 86, 87, 88, 90, 93, 96, 97}, {19, 22, 23, 33, 43, 54, 73, 97}, {4, 5, 7, 9, 11, 12, 14, 16, 19, 20, 21, 22, 23, 25, 26, 28, 29, 30, 35, 36, 37, 38, 39, 40, 41, 47, 48, 49, 50, 51, 52, 53, 56, 58, 60, 62, 64, 66, 67, 71, 73, 76, 77, 78, 79, 81, 82, 84, 85, 86, 90, 93, 94, 95, 97, 98}, {3, 4, 6, 10, 12, 14, 21, 25, 37, 38, 41, 42, 43, 47, 49, 52, 53, 56, 57, 59, 61, 62, 64, 66, 70, 72, 73, 75, 76, 78, 83, 86, 88, 89, 90, 91, 96}, {1, 2, 16, 21, 23, 28, 32, 33, 45, 46, 54, 60, 73, 77, 78, 81, 87, 96, 98}, {3, 4, 6, 7, 8, 9, 13, 14, 15, 16, 17, 18, 20, 24, 25, 27, 28, 29, 30, 31, 32, 33, 34, 35, 36, 38, 39, 41, 42, 44, 45, 46, 47, 49, 52, 53, 54, 55, 56, 58, 61, 62, 63, 66, 67, 73, 74, 75, 77, 79, 80, 85, 86, 87, 88, 89, 90, 91, 92, 94, 95, 98}, {3, 4, 7, 10, 12, 14, 16, 17, 20, 21, 24, 28, 29, 31, 33, 34, 35, 36, 38, 44, 47, 48, 50, 51, 53, 55, 58, 64, 65, 66, 67, 70, 71, 72, 73, 76, 77, 80, 81, 83, 84, 85, 86, 87, 88, 90, 96}, {5, 7, 12, 14, 32, 40, 54, 60, 85, 89}];
RolesDemands = [20, 8, 11, 11];
RolesContinuity = [1];
ExamLen = [1, 1, 1, 1, 1, 1, 1, 1, 1, 1];
LunchTsMinLen = 0;
LunchStarts = [4..7];
SupervisorAvailable = 5;
OptimalLunchLenght = [1, 1];
OptimalStartTs = [0, 0];
OptimalFinishTs = [0, 10];
MinimizeRooms = 200;
RolesSoftContinuity = [|1, 2, 3, 4|2, 2, 0, 0|];
SameDegreeInRoom = 20;
Mergeability = 1;
